c Formula 4 - High redundancy test
c This formula contains multiple types of redundancy for testing simplification
c Including tautologies, duplicates, subsumptions, and unit clauses
p cnf 55 220
1 0
-1 2 3 0
4 5 0
4 5 6 0
4 5 6 7 0
4 5 6 7 8 0
9 10 0
9 10 11 0
9 10 11 12 0
9 10 11 12 13 0
14 0
-14 15 16 0
-14 15 17 0
18 19 20 0
18 19 20 0
18 19 20 0
21 22 23 0
21 22 23 0
24 25 26 27 0
24 25 26 27 0
28 -28 29 30 0
31 -31 32 0
33 34 -34 35 0
36 37 38 -38 0
39 -39 40 41 42 0
43 44 0
43 44 45 0
43 44 45 46 0
47 48 49 0
47 48 49 0
50 51 0
50 51 52 0
50 51 52 53 0
50 51 52 53 54 0
2 3 4 0
2 3 4 5 0
6 7 8 9 0
6 7 8 9 10 0
11 12 13 0
11 12 13 14 0
11 12 13 14 15 0
16 17 18 0
16 17 18 19 0
20 21 22 0
20 21 22 23 0
20 21 22 23 24 0
25 26 27 0
25 26 27 28 0
29 30 31 0
29 30 31 32 0
29 30 31 32 33 0
34 35 36 0
34 35 36 37 0
38 39 40 0
38 39 40 41 0
42 43 44 0
42 43 44 45 0
46 47 48 0
46 47 48 49 0
46 47 48 49 50 0
-1 -2 5 0
-1 -2 5 6 0
-4 -5 10 0
-4 -5 10 11 0
-9 -10 15 0
-9 -10 15 16 0
-9 -10 15 16 17 0
-14 -15 20 0
-14 -15 20 21 0
-18 -19 25 0
-18 -19 25 26 0
-21 -22 30 0
-21 -22 30 31 0
-24 -25 35 0
-24 -25 35 36 0
-24 -25 35 36 37 0
-28 -29 40 0
-28 -29 40 41 0
-31 -32 45 0
-31 -32 45 46 0
-33 -34 50 0
-33 -34 50 51 0
-36 -37 55 0
-36 -37 55 -1 0
-39 -40 2 0
-39 -40 2 3 0
-43 -44 7 0
-43 -44 7 8 0
-47 -48 12 0
-47 -48 12 13 0
-47 -48 12 13 14 0
1 2 -3 0
1 2 -3 4 0
5 6 -7 0
5 6 -7 8 0
9 10 -11 0
9 10 -11 12 0
13 14 -15 0
13 14 -15 16 0
13 14 -15 16 17 0
17 18 -19 0
17 18 -19 20 0
21 22 -23 0
21 22 -23 24 0
25 26 -27 0
25 26 -27 28 0
25 26 -27 28 29 0
29 30 -31 0
29 30 -31 32 0
33 34 -35 0
33 34 -35 36 0
37 38 -39 0
37 38 -39 40 0
37 38 -39 40 41 0
41 42 -43 0
41 42 -43 44 0
45 46 -47 0
45 46 -47 48 0
49 50 -51 0
49 50 -51 52 0
53 54 -55 0
53 54 -55 1 0
-1 3 4 0
-1 3 4 5 0
-5 7 8 0
-5 7 8 9 0
-9 11 12 0
-9 11 12 13 0
-9 11 12 13 14 0
-13 15 16 0
-13 15 16 17 0
-17 19 20 0
-17 19 20 21 0
-21 23 24 0
-21 23 24 25 0
-25 27 28 0
-25 27 28 29 0
-25 27 28 29 30 0
-29 31 32 0
-29 31 32 33 0
-33 35 36 0
-33 35 36 37 0
-37 39 40 0
-37 39 40 41 0
-41 43 44 0
-41 43 44 45 0
-41 43 44 45 46 0
-45 47 48 0
-45 47 48 49 0
-49 51 52 0
-49 51 52 53 0
-53 55 1 0
-53 55 1 2 0
2 -3 -4 0
2 -3 -4 -5 0
6 -7 -8 0
6 -7 -8 -9 0
10 -11 -12 0
10 -11 -12 -13 0
10 -11 -12 -13 -14 0
14 -15 -16 0
14 -15 -16 -17 0
18 -19 -20 0
18 -19 -20 -21 0
22 -23 -24 0
22 -23 -24 -25 0
22 -23 -24 -25 -26 0
26 -27 -28 0
26 -27 -28 -29 0
30 -31 -32 0
30 -31 -32 -33 0
34 -35 -36 0
34 -35 -36 -37 0
34 -35 -36 -37 -38 0
38 -39 -40 0
38 -39 -40 -41 0
42 -43 -44 0
42 -43 -44 -45 0
46 -47 -48 0
46 -47 -48 -49 0
50 -51 -52 0
50 -51 -52 -53 0
50 -51 -52 -53 -54 0
54 -55 -1 0
54 -55 -1 -2 0
3 4 5 6 0
3 4 5 6 7 0
7 8 9 10 0
7 8 9 10 11 0
11 12 13 14 0
11 12 13 14 15 0
11 12 13 14 15 16 0
15 16 17 18 0
15 16 17 18 19 0
19 20 21 22 0
19 20 21 22 23 0
23 24 25 26 0
23 24 25 26 27 0
23 24 25 26 27 28 0
27 28 29 30 0
27 28 29 30 31 0
31 32 33 34 0
31 32 33 34 35 0
35 36 37 38 0
35 36 37 38 39 0
39 40 41 42 0
39 40 41 42 43 0
39 40 41 42 43 44 0
43 44 45 46 0
43 44 45 46 47 0
47 48 49 50 0
47 48 49 50 51 0
51 52 53 54 0
51 52 53 54 55 0
51 52 53 54 55 1 0
-2 -4 -6 0
-2 -4 -6 -8 0
-8 -10 -12 0
-8 -10 -12 -14 0
-16 -18 -20 0
-16 -18 -20 -22 0
-16 -18 -20 -22 -24 0
-26 -28 -30 0
-26 -28 -30 -32 0
-34 -36 -38 0
-34 -36 -38 -40 0
-42 -44 -46 0
-42 -44 -46 -48 0
-42 -44 -46 -48 -50 0
-52 -54 1 0
-52 -54 1 3 0